40289 38233 
40700 37922 
40692 37949 
40820 37766 
41007 37617 
41980 36222 
41863 36643 
41598 36842 
41864 36479 
41791 36703 
41421 37092 
41609 36820 
41413 37119 
41954 36369 
41214 37415 
42027 36145 
41835 36657 
42014 36186 
41357 37215 
41668 36801 
41271 37306 
40586 38027 
40188 38471 
40503 38139 
40279 38277 
38596 39642 
39430 39047 
36132 40438 
36748 40272 
36813 40231 
37562 40086 
37129 40158 
37651 40024 
38137 39838 
37935 39906 
37704 39910 
39480 38952 
39828 38790 
39218 39247 
39644 38842 
39558 38933 
38948 39390 
38969 39340 
39073 39321 
38883 39431 
39325 39163 
39338 39122 
39411 39072 
39935 38706 
40021 38615 
38724 39508 
40505 38080 
40406 38149 
40971 37687 
40734 37909 
40747 37825 
41582 36962 
41062 37493 
40377 38214 
41200 37446 
41104 37450 
